unsat
(:cnf-encoding-aux-vars   23
 :eliminated-applications 3
 :eliminated-vars         39
 :max-memory              18.46
 :memory                  18.12
 :nlsat-conflicts         106
 :nlsat-decisions         106
 :nlsat-learned-added     86
 :nlsat-learned-deleted   40
 :nlsat-propagations      771
 :nlsat-restarts          1
 :nlsat-stages            50
 :num-allocs              22337
 :rlimit-count            34714
 :time                    0.01
 :total-time              0.02)
